50
462
4
6
15
7
41
0 1
0 2
0 3
0 9
0 10
0 12
0 14
0 17
0 19
0 20
0 23
0 24
0 27
0 33
0 34
0 39
0 41
0 43
0 45
0 49
1 3
1 5
1 6
1 8
1 9
1 11
1 15
1 18
1 19
1 22
1 28
1 31
1 32
1 33
1 35
1 39
1 42
1 44
1 46
1 47
1 48
2 3
2 5
2 7
2 8
2 15
2 20
2 21
2 24
2 28
2 31
2 32
2 33
2 34
2 35
2 37
2 44
2 47
2 48
3 4
3 5
3 7
3 8
3 11
3 12
3 14
3 15
3 19
3 22
3 25
3 26
3 28
3 29
3 30
3 31
3 33
3 35
3 37
3 42
3 49
4 5
4 9
4 10
4 11
4 12
4 14
4 15
4 16
4 19
4 21
4 22
4 24
4 26
4 28
4 34
4 36
4 38
4 39
4 42
4 43
4 47
5 8
5 9
5 10
5 19
5 20
5 21
5 22
5 25
5 30
5 34
5 35
5 39
5 40
5 44
5 46
6 7
6 9
6 10
6 16
6 19
6 21
6 24
6 25
6 28
6 29
6 35
6 36
6 41
6 43
6 46
6 47
7 10
7 13
7 15
7 21
7 24
7 25
7 27
7 30
7 33
7 35
7 37
7 43
7 44
7 47
8 9
8 13
8 14
8 18
8 21
8 22
8 23
8 24
8 25
8 27
8 29
8 30
8 36
8 45
8 46
8 48
8 49
9 11
9 14
9 15
9 16
9 17
9 19
9 21
9 25
9 29
9 30
9 31
9 39
9 40
9 48
10 11
10 12
10 13
10 20
10 22
10 29
10 31
10 33
10 34
10 36
10 38
10 44
10 45
10 47
11 16
11 19
11 21
11 27
11 30
11 33
11 34
11 35
11 38
11 44
11 46
11 47
12 15
12 17
12 19
12 20
12 22
12 23
12 25
12 27
12 28
12 31
12 32
12 33
12 36
12 40
12 44
12 47
13 18
13 19
13 21
13 22
13 26
13 28
13 30
13 32
13 37
13 38
13 43
13 48
14 16
14 21
14 27
14 28
14 29
14 31
14 34
14 37
14 41
14 47
15 16
15 17
15 26
15 28
15 33
15 35
15 37
15 39
15 42
15 43
15 44
15 47
15 48
15 49
16 17
16 18
16 22
16 23
16 24
16 28
16 31
16 32
16 33
16 34
16 36
16 37
16 40
16 41
16 42
16 46
16 48
16 49
17 27
17 30
17 32
17 33
17 34
17 38
17 39
17 44
17 45
17 46
17 48
18 19
18 20
18 27
18 33
18 36
18 38
18 45
18 47
19 20
19 23
19 27
19 30
19 31
19 35
19 38
19 44
19 46
20 22
20 23
20 24
20 27
20 28
20 31
20 35
20 36
20 39
20 40
20 41
20 42
20 46
20 47
20 49
21 23
21 30
21 33
21 35
21 38
21 40
21 45
21 47
22 25
22 26
22 27
22 31
22 34
22 35
22 36
22 37
22 38
22 39
22 40
22 42
22 46
22 47
23 29
23 33
23 34
23 36
23 38
23 40
23 41
23 42
23 45
23 48
24 25
24 29
24 32
24 33
24 34
24 35
24 36
24 39
24 40
24 45
24 47
25 29
25 30
25 31
25 43
25 44
25 49
26 27
26 28
26 30
26 31
26 33
26 41
26 45
26 46
26 48
27 28
27 32
27 33
27 34
27 36
27 38
27 41
27 48
27 49
28 33
28 35
28 37
28 40
28 41
28 43
28 45
28 48
29 34
29 42
29 47
29 48
30 32
30 40
30 42
30 43
30 44
30 45
30 49
31 35
31 36
31 38
31 40
31 45
31 47
32 33
32 36
32 42
32 43
32 47
33 35
33 37
33 38
33 39
33 44
33 45
33 46
33 48
33 49
34 35
34 37
34 40
34 45
34 48
34 49
35 37
35 38
35 39
35 42
35 46
36 37
36 38
36 43
36 45
36 48
36 49
37 41
37 47
38 45
39 40
39 41
39 42
39 47
39 48
40 41
40 43
40 44
41 45
41 47
41 48
42 45
42 47
43 46
43 48
43 49
45 46
45 48
45 49
48 49
11 14 45 28 21 18 47 22 8 40 31 42 4 0 16
35 2 5 15 33 20 3 24 39 48 37 41 6 27 1
43 19 13 17 30 10 34 49 32 12 29 44 7 26 25
38 36 9 46 23
